p cnf 76 409
-1 -2 0
-1 -3 0
-1 -4 0
-1 -5 0
-2 -3 0
-2 -4 0
-2 -5 0
-3 -4 0
-3 -5 0
-4 -5 0
1 2 3 4 5 0
-6 -7 0
-6 -8 0
-6 -9 0
-6 -10 0
-6 -11 0
-6 -12 0
-7 -8 0
-7 -9 0
-7 -10 0
-7 -11 0
-7 -12 0
-8 -9 0
-8 -10 0
-8 -11 0
-8 -12 0
-9 -10 0
-9 -11 0
-9 -12 0
-10 -11 0
-10 -12 0
-11 -12 0
6 7 8 9 10 11 12 0
-13 -14 0
-13 -15 0
-13 -16 0
-14 -15 0
-14 -16 0
-15 -16 0
13 14 15 16 0
-17 -18 0
-17 -19 0
-18 -19 0
17 18 19 0
-6 -20 0
-6 -21 0
-20 -21 0
6 20 21 0
-7 -17 0
-7 -22 0
-7 -23 0
-7 -24 0
-7 -25 0
-7 -26 0
-7 -27 0
-17 -22 0
-17 -23 0
-17 -24 0
-17 -25 0
-17 -26 0
-17 -27 0
-22 -23 0
-22 -24 0
-22 -25 0
-22 -26 0
-22 -27 0
-23 -24 0
-23 -25 0
-23 -26 0
-23 -27 0
-24 -25 0
-24 -26 0
-24 -27 0
-25 -26 0
-25 -27 0
-26 -27 0
7 17 22 23 24 25 26 27 0
-8 -28 0
-8 -29 0
-8 -30 0
-8 -31 0
-28 -29 0
-28 -30 0
-28 -31 0
-29 -30 0
-29 -31 0
-30 -31 0
8 28 29 30 31 0
-13 -32 0
-13 -33 0
-13 -34 0
-13 -35 0
-13 -36 0
-32 -33 0
-32 -34 0
-32 -35 0
-32 -36 0
-33 -34 0
-33 -35 0
-33 -36 0
-34 -35 0
-34 -36 0
-35 -36 0
13 32 33 34 35 36 0
-28 -37 0
-28 -38 0
-28 -39 0
-37 -38 0
-37 -39 0
-38 -39 0
28 37 38 39 0
-9 -40 0
-9 -41 0
-9 -42 0
-9 -43 0
-40 -41 0
-40 -42 0
-40 -43 0
-41 -42 0
-41 -43 0
-42 -43 0
9 40 41 42 43 0
-14 -22 0
-14 -44 0
-14 -45 0
-14 -46 0
-14 -47 0
-22 -44 0
-22 -45 0
-22 -46 0
-22 -47 0
-44 -45 0
-44 -46 0
-44 -47 0
-45 -46 0
-45 -47 0
-46 -47 0
14 22 44 45 46 47 0
-10 -15 0
-10 -29 0
-10 -48 0
-10 -49 0
-15 -29 0
-15 -48 0
-15 -49 0
-29 -48 0
-29 -49 0
-48 -49 0
10 15 29 48 49 0
-23 -44 0
-23 -50 0
-23 -51 0
-23 -52 0
-23 -53 0
-23 -54 0
-44 -50 0
-44 -51 0
-44 -52 0
-44 -53 0
-44 -54 0
-50 -51 0
-50 -52 0
-50 -53 0
-50 -54 0
-51 -52 0
-51 -53 0
-51 -54 0
-52 -53 0
-52 -54 0
-53 -54 0
23 44 50 51 52 53 54 0
-1 -24 0
-1 -32 0
-1 -55 0
-1 -56 0
-1 -57 0
-24 -32 0
-24 -55 0
-24 -56 0
-24 -57 0
-32 -55 0
-32 -56 0
-32 -57 0
-55 -56 0
-55 -57 0
-56 -57 0
1 24 32 55 56 57 0
-16 -50 0
-16 -55 0
-16 -58 0
-16 -59 0
-16 -60 0
-16 -61 0
-16 -62 0
-50 -55 0
-50 -58 0
-50 -59 0
-50 -60 0
-50 -61 0
-50 -62 0
-55 -58 0
-55 -59 0
-55 -60 0
-55 -61 0
-55 -62 0
-58 -59 0
-58 -60 0
-58 -61 0
-58 -62 0
-59 -60 0
-59 -61 0
-59 -62 0
-60 -61 0
-60 -62 0
-61 -62 0
16 50 55 58 59 60 61 62 0
-2 -40 0
-2 -63 0
-40 -63 0
2 40 63 0
-18 -30 0
-18 -33 0
-18 -37 0
-18 -41 0
-18 -51 0
-18 -58 0
-18 -64 0
-30 -33 0
-30 -37 0
-30 -41 0
-30 -51 0
-30 -58 0
-30 -64 0
-33 -37 0
-33 -41 0
-33 -51 0
-33 -58 0
-33 -64 0
-37 -41 0
-37 -51 0
-37 -58 0
-37 -64 0
-41 -51 0
-41 -58 0
-41 -64 0
-51 -58 0
-51 -64 0
-58 -64 0
18 30 33 37 41 51 58 64 0
-3 -34 0
-3 -52 0
-3 -59 0
-3 -65 0
-3 -66 0
-34 -52 0
-34 -59 0
-34 -65 0
-34 -66 0
-52 -59 0
-52 -65 0
-52 -66 0
-59 -65 0
-59 -66 0
-65 -66 0
3 34 52 59 65 66 0
-4 -11 0
-4 -45 0
-4 -48 0
-4 -67 0
-4 -68 0
-11 -45 0
-11 -48 0
-11 -67 0
-11 -68 0
-45 -48 0
-45 -67 0
-45 -68 0
-48 -67 0
-48 -68 0
-67 -68 0
4 11 45 48 67 68 0
-20 -46 0
-20 -56 0
-20 -65 0
-20 -67 0
-20 -69 0
-20 -70 0
-20 -71 0
-46 -56 0
-46 -65 0
-46 -67 0
-46 -69 0
-46 -70 0
-46 -71 0
-56 -65 0
-56 -67 0
-56 -69 0
-56 -70 0
-56 -71 0
-65 -67 0
-65 -69 0
-65 -70 0
-65 -71 0
-67 -69 0
-67 -70 0
-67 -71 0
-69 -70 0
-69 -71 0
-70 -71 0
20 46 56 65 67 69 70 71 0
-31 -66 0
-31 -68 0
-31 -72 0
-31 -73 0
-66 -68 0
-66 -72 0
-66 -73 0
-68 -72 0
-68 -73 0
-72 -73 0
31 66 68 72 73 0
-25 -35 0
-25 -53 0
-25 -72 0
-25 -74 0
-35 -53 0
-35 -72 0
-35 -74 0
-53 -72 0
-53 -74 0
-72 -74 0
25 35 53 72 74 0
-49 -54 0
-49 -75 0
-54 -75 0
49 54 75 0
-19 -36 0
-19 -42 0
-19 -60 0
-19 -63 0
-19 -69 0
-19 -75 0
-19 -76 0
-36 -42 0
-36 -60 0
-36 -63 0
-36 -69 0
-36 -75 0
-36 -76 0
-42 -60 0
-42 -63 0
-42 -69 0
-42 -75 0
-42 -76 0
-60 -63 0
-60 -69 0
-60 -75 0
-60 -76 0
-63 -69 0
-63 -75 0
-63 -76 0
-69 -75 0
-69 -76 0
-75 -76 0
19 36 42 60 63 69 75 76 0
-26 -38 0
-26 -61 0
-38 -61 0
26 38 61 0
-47 -74 0
47 74 0
-5 -12 0
-5 -27 0
-5 -62 0
-5 -70 0
-5 -76 0
-12 -27 0
-12 -62 0
-12 -70 0
-12 -76 0
-27 -62 0
-27 -70 0
-27 -76 0
-62 -70 0
-62 -76 0
-70 -76 0
5 12 27 62 70 76 0
-21 -39 0
-21 -43 0
-21 -57 0
-21 -64 0
-21 -71 0
-21 -73 0
-39 -43 0
-39 -57 0
-39 -64 0
-39 -71 0
-39 -73 0
-43 -57 0
-43 -64 0
-43 -71 0
-43 -73 0
-57 -64 0
-57 -71 0
-57 -73 0
-64 -71 0
-64 -73 0
-71 -73 0
21 39 43 57 64 71 73 0
